NAME: random-42-24440
TYPE: TSP
COMMENT: size=42 seed=24440
DIMENSION: 86
EDGE_WEIGHT_TYPE: EUC_2D
NODE_COORD_SECTION
+0 80 102
-0 80 102
+1 260 583
-1 957 943
+2 626 539
-2 916 582
+3 204 412
-3 298 905
+4 786 124
-4 210 729
+5 979 112
-5 42 947
+6 440 454
-6 751 613
+7 991 761
-7 224 124
+8 422 960
-8 517 286
+9 493 118
-9 420 824
+10 541 269
-10 253 276
+11 219 728
-11 581 606
+12 105 825
-12 189 595
+13 803 814
-13 260 957
+14 730 354
-14 213 760
+15 157 530
-15 714 901
+16 329 736
-16 792 121
+17 859 626
-17 781 604
+18 563 269
-18 891 63
+19 661 912
-19 683 879
+20 143 599
-20 371 665
+21 787 58
-21 729 97
+22 818 868
-22 467 678
+23 234 112
-23 318 315
+24 103 78
-24 166 16
+25 683 235
-25 947 694
+26 148 283
-26 210 551
+27 893 6
-27 157 304
+28 362 457
-28 63 507
+29 592 807
-29 771 291
+30 119 710
-30 129 645
+31 368 411
-31 186 839
+32 253 560
-32 814 8
+33 2 36
-33 917 268
+34 989 845
-34 790 185
+35 566 190
-35 696 940
+36 983 70
-36 98 278
+37 233 107
-37 700 737
+38 40 706
-38 866 907
+39 48 748
-39 976 771
+40 241 619
-40 162 151
+41 349 68
-41 119 270
+42 108 844
-42 158 45
PRECEDENCE_SECTION
+0 -0
+1 -1
+2 -2
+3 -3
+4 -4
+5 -5
+6 -6
+7 -7
+8 -8
+9 -9
+10 -10
+11 -11
+12 -12
+13 -13
+14 -14
+15 -15
+16 -16
+17 -17
+18 -18
+19 -19
+20 -20
+21 -21
+22 -22
+23 -23
+24 -24
+25 -25
+26 -26
+27 -27
+28 -28
+29 -29
+30 -30
+31 -31
+32 -32
+33 -33
+34 -34
+35 -35
+36 -36
+37 -37
+38 -38
+39 -39
+40 -40
+41 -41
+42 -42
EOF
